c uprop, v00.0, 
c reading from data/prog651.c.cnf
c done reading: 0.00255
p cnf 183 874
-88 -109 0
-88 -105 0
88 105 109 0
-82 105 109 0
-82 -105 -109 0
82 105 -109 0
82 -105 109 0
88 -100 0
-98 -100 0
-88 98 100 0
-88 -93 98 0
88 -93 -98 0
88 93 98 0
-88 93 -98 0
-89 100 0
-86 -89 0
86 89 -100 0
-84 86 -100 0
-84 -86 100 0
84 86 100 0
84 -86 -100 0
-83 89 0
-80 -83 0
80 83 -89 0
80 -89 -107 0
-80 89 -107 0
80 89 107 0
-80 -89 107 0
83 -111 0
-102 -111 0
-83 102 111 0
-83 102 -112 0
83 -102 -112 0
83 102 112 0
-83 -102 112 0
111 -113 0
-95 -113 0
95 -111 113 0
95 -111 -114 0
-95 111 -114 0
95 111 114 0
-95 -111 114 0
113 -115 0
-91 -115 0
91 -113 115 0
91 -113 -116 0
-91 113 -116 0
91 113 116 0
-91 -113 116 0
98 -117 0
109 -117 0
-98 -109 117 0
-98 -109 -118 0
98 109 -118 0
-98 109 118 0
98 -109 118 0
-86 -105 119 0
-86 -117 119 0
-105 -117 119 0
86 105 -119 0
86 117 -119 0
105 117 -119 0
86 -119 -120 0
105 -119 -120 0
117 -119 -120 0
-86 119 120 0
-105 119 120 0
-117 119 120 0
-86 -105 -117 120 0
86 105 117 -120 0
-80 -98 121 0
-80 -119 121 0
-98 -119 121 0
80 98 -121 0
80 119 -121 0
98 119 -121 0
80 -121 -122 0
98 -121 -122 0
119 -121 -122 0
-80 121 122 0
-98 121 122 0
-119 121 122 0
-80 -98 -119 122 0
80 98 119 -122 0
-86 -102 123 0
-102 -121 123 0
-86 -121 123 0
86 102 -123 0
102 121 -123 0
86 121 -123 0
-78 102 -123 0
-78 86 -123 0
-78 121 -123 0
78 -102 123 0
78 -86 123 0
78 -121 123 0
78 -86 -102 -121 0
-78 86 102 121 0
77 -80 -95 0
77 -95 -123 0
77 -80 -123 0
-77 80 95 0
-77 95 123 0
-77 80 123 0
-76 -77 95 0
-76 -77 80 0
-76 -77 123 0
76 77 -95 0
76 77 -80 0
76 77 -123 0
76 -80 -95 -123 0
-76 80 95 123 0
75 -91 -102 0
75 -77 -91 0
75 -77 -102 0
-75 91 102 0
-75 77 91 0
-75 77 102 0
-74 -75 91 0
-74 -75 102 0
-74 -75 77 0
74 75 -91 0
74 75 -102 0
74 75 -77 0
74 -77 -91 -102 0
-74 77 91 102 0
-73 95 0
-73 75 0
73 -75 -95 0
-75 -95 -108 0
75 95 -108 0
75 -95 108 0
-75 95 108 0
91 -104 0
73 -104 0
-73 -91 104 0
-73 -91 -97 0
73 91 -97 0
73 -91 97 0
-73 91 97 0
-85 122 0
-85 109 0
85 -109 -122 0
-79 -109 -122 0
-79 109 122 0
79 109 -122 0
79 -109 122 0
-78 101 -105 0
-78 -85 101 0
-85 101 -105 0
78 -101 105 0
78 85 -101 0
85 -101 105 0
78 -94 -101 0
-94 -101 105 0
85 -94 -101 0
-78 94 101 0
94 101 -105 0
-85 94 101 0
-78 -85 94 -105 0
78 85 -94 105 0
-76 90 -98 0
-76 90 -101 0
90 -98 -101 0
76 -90 98 0
76 -90 101 0
-90 98 101 0
-72 76 -90 0
-72 -90 98 0
-72 -90 101 0
72 -76 90 0
72 90 -98 0
72 90 -101 0
72 -76 -98 -101 0
-72 76 98 101 0
71 -74 -86 0
71 -74 -90 0
71 -86 -90 0
-71 74 86 0
-71 74 90 0
-71 86 90 0
-70 -71 74 0
-70 -71 86 0
-70 -71 90 0
70 71 -74 0
70 71 -86 0
70 71 -90 0
70 -74 -86 -90 0
-70 74 86 90 0
69 -80 -108 0
69 -71 -108 0
69 -71 -80 0
-69 80 108 0
-69 71 108 0
-69 71 80 0
-68 -69 108 0
-68 -69 80 0
-68 -69 71 0
68 69 -108 0
68 69 -80 0
68 69 -71 0
68 -71 -80 -108 0
-68 71 80 108 0
67 -97 -102 0
67 -69 -97 0
67 -69 -102 0
-67 97 102 0
-67 69 97 0
-67 69 102 0
-66 -67 97 0
-66 -67 102 0
-66 -67 69 0
66 67 -97 0
66 67 -102 0
66 67 -69 0
66 -69 -97 -102 0
-66 69 97 102 0
65 -95 -104 0
65 -67 -104 0
65 -67 -95 0
-65 95 104 0
-65 67 104 0
-65 67 95 0
-64 -65 104 0
-64 -65 95 0
-64 -65 67 0
64 65 -104 0
64 65 -95 0
64 65 -67 0
64 -67 -95 -104 0
-64 67 95 104 0
-63 91 0
-63 65 0
63 -65 -91 0
-62 -65 -91 0
-62 65 91 0
62 65 -91 0
62 -65 91 0
-61 94 0
-61 109 0
61 -94 -109 0
-60 -94 -109 0
-60 94 109 0
60 -94 109 0
60 94 -109 0
59 -72 -105 0
59 -61 -72 0
59 -61 -105 0
-59 72 105 0
-59 61 72 0
-59 61 105 0
-58 -59 72 0
-58 -59 105 0
-58 -59 61 0
58 59 -72 0
58 59 -105 0
58 59 -61 0
58 -61 -72 -105 0
-58 61 72 105 0
57 -70 -98 0
57 -59 -70 0
57 -59 -98 0
-57 70 98 0
-57 59 70 0
-57 59 98 0
-57 70 -124 0
-57 98 -124 0
-57 59 -124 0
57 -70 124 0
57 -98 124 0
57 -59 124 0
-59 -70 -98 124 0
59 70 98 -124 0
-68 -86 125 0
-57 -68 125 0
-57 -86 125 0
68 86 -125 0
57 68 -125 0
57 86 -125 0
68 -125 -126 0
86 -125 -126 0
57 -125 -126 0
-68 125 126 0
-86 125 126 0
-57 125 126 0
-57 -68 -86 126 0
57 68 86 -126 0
-66 -80 127 0
-66 -125 127 0
-80 -125 127 0
66 80 -127 0
66 125 -127 0
80 125 -127 0
66 -127 -128 0
80 -127 -128 0
125 -127 -128 0
-66 127 128 0
-80 127 128 0
-125 127 128 0
-66 -80 -125 128 0
66 80 125 -128 0
-64 -102 129 0
-64 -127 129 0
-102 -127 129 0
64 102 -129 0
64 127 -129 0
102 127 -129 0
64 -129 -130 0
102 -129 -130 0
127 -129 -130 0
-64 129 130 0
-102 129 130 0
-127 129 130 0
-64 -102 -127 130 0
64 102 127 -130 0
-62 -95 131 0
-62 -129 131 0
-95 -129 131 0
62 95 -131 0
62 129 -131 0
95 129 -131 0
62 -131 -132 0
95 -131 -132 0
129 -131 -132 0
-62 131 132 0
-95 131 132 0
-129 131 132 0
-62 -95 -129 132 0
62 95 129 -132 0
-63 -91 133 0
-63 -131 133 0
-91 -131 133 0
63 91 -133 0
63 131 -133 0
91 131 -133 0
63 -133 -134 0
91 -133 -134 0
131 -133 -134 0
-63 133 134 0
-91 133 134 0
-131 133 134 0
-63 -91 -131 134 0
63 91 131 -134 0
-109 -135 0
-105 -135 0
105 109 135 0
105 109 -136 0
-105 -109 -136 0
105 -109 136 0
-105 109 136 0
135 -137 0
-118 -137 0
118 -135 137 0
118 -135 -138 0
-118 135 -138 0
118 135 138 0
-118 -135 138 0
137 -139 0
-120 -139 0
120 -137 139 0
120 -137 -140 0
-120 137 -140 0
120 137 140 0
-120 -137 140 0
139 -141 0
-79 -141 0
79 -139 141 0
79 -139 -142 0
-79 139 -142 0
79 139 142 0
-79 -139 142 0
141 -143 0
-60 -143 0
60 -141 143 0
60 -141 -144 0
-60 141 -144 0
60 141 144 0
-60 -141 144 0
143 -145 0
-58 -145 0
58 -143 145 0
58 -143 -146 0
-58 143 -146 0
58 143 146 0
-58 -143 146 0
145 -147 0
-124 -147 0
124 -145 147 0
124 -145 -148 0
-124 145 -148 0
124 145 148 0
-124 -145 148 0
147 -149 0
-126 -149 0
126 -147 149 0
126 -147 -150 0
-126 147 -150 0
126 147 150 0
-126 -147 150 0
149 -151 0
-128 -151 0
128 -149 151 0
128 -149 -152 0
-128 149 -152 0
128 149 152 0
-128 -149 152 0
151 -153 0
-130 -153 0
130 -151 153 0
130 -151 -154 0
-130 151 -154 0
130 151 154 0
-130 -151 154 0
153 -155 0
-132 -155 0
132 -153 155 0
132 -153 -156 0
-132 153 -156 0
132 153 156 0
-132 -153 156 0
155 -157 0
-134 -157 0
134 -155 157 0
134 -155 -158 0
-134 155 -158 0
134 155 158 0
-134 -155 158 0
157 -159 0
-133 -159 0
133 -157 159 0
133 -157 -160 0
-133 157 -160 0
133 157 160 0
-133 -157 160 0
-161 -163 0
-163 -164 0
161 163 164 0
161 164 -166 0
-161 -164 -166 0
-161 164 166 0
161 -164 166 0
163 -167 0
-167 -168 0
-163 167 168 0
-163 168 -170 0
163 -168 -170 0
163 168 170 0
-163 -168 170 0
167 -171 0
-171 -172 0
-167 171 172 0
-167 172 -174 0
167 -172 -174 0
167 172 174 0
-167 -172 174 0
171 -175 0
-175 -176 0
-171 175 176 0
-110 -171 176 0
-110 171 -176 0
110 171 176 0
110 -171 -176 0
-106 175 0
-106 -178 0
106 -175 178 0
-99 -175 178 0
-99 175 -178 0
99 175 178 0
99 -175 -178 0
-87 106 0
-87 -180 0
87 -106 180 0
-81 -106 180 0
-81 106 -180 0
81 106 180 0
81 -106 -180 0
87 -103 0
-103 -182 0
-87 103 182 0
-87 -96 182 0
87 -96 -182 0
87 96 182 0
-87 96 -182 0
-92 164 0
-92 161 0
92 -161 -164 0
-161 -162 -164 0
161 -162 164 0
161 162 -164 0
-161 162 164 0
-164 165 -168 0
-92 165 -168 0
-92 -164 165 0
164 -165 168 0
92 -165 168 0
92 164 -165 0
-165 168 -169 0
164 -165 -169 0
92 -165 -169 0
165 -168 169 0
-164 165 169 0
-92 165 169 0
-92 -164 -168 169 0
92 164 168 -169 0
-168 -172 173 0
-165 -172 173 0
-165 -168 173 0
168 172 -173 0
165 172 -173 0
165 168 -173 0
172 -173 -177 0
168 -173 -177 0
165 -173 -177 0
-172 173 177 0
-168 173 177 0
-165 173 177 0
-165 -168 -172 177 0
165 168 172 -177 0
-172 -176 179 0
-173 -176 179 0
-172 -173 179 0
172 176 -179 0
173 176 -179 0
172 173 -179 0
176 -179 -181 0
172 -179 -181 0
173 -179 -181 0
-176 179 181 0
-172 179 181 0
-173 179 181 0
-172 -173 -176 181 0
172 173 176 -181 0
-176 -178 183 0
-178 -179 183 0
-176 -179 183 0
176 178 -183 0
178 179 -183 0
176 179 -183 0
-56 178 -183 0
-56 176 -183 0
-56 179 -183 0
56 -178 183 0
56 -176 183 0
56 -179 183 0
56 -176 -178 -179 0
-56 176 178 179 0
55 -178 -180 0
55 -180 -183 0
55 -178 -183 0
-55 178 180 0
-55 180 183 0
-55 178 183 0
-54 -55 180 0
-54 -55 178 0
-54 -55 183 0
54 55 -180 0
54 55 -178 0
54 55 -183 0
54 -178 -180 -183 0
-54 178 180 183 0
53 -180 -182 0
53 -55 -182 0
53 -55 -180 0
-53 180 182 0
-53 55 182 0
-53 55 180 0
-52 -53 182 0
-52 -53 180 0
-52 -53 55 0
52 53 -182 0
52 53 -180 0
52 53 -55 0
52 -55 -180 -182 0
-52 55 180 182 0
-51 182 0
-51 53 0
51 -53 -182 0
-50 -53 -182 0
-50 53 182 0
50 53 -182 0
50 -53 182 0
-49 169 0
-49 161 0
49 -161 -169 0
-48 -161 -169 0
-48 161 169 0
48 161 -169 0
48 -161 169 0
47 -164 -177 0
47 -49 -177 0
47 -49 -164 0
-47 164 177 0
-47 49 177 0
-47 49 164 0
-46 -47 177 0
-46 -47 164 0
-46 -47 49 0
46 47 -177 0
46 47 -164 0
46 47 -49 0
46 -49 -164 -177 0
-46 49 164 177 0
45 -168 -181 0
45 -47 -181 0
45 -47 -168 0
-45 168 181 0
-45 47 181 0
-45 47 168 0
-44 -45 181 0
-44 -45 168 0
-44 -45 47 0
44 45 -181 0
44 45 -168 0
44 45 -47 0
44 -47 -168 -181 0
-44 47 168 181 0
43 -56 -172 0
43 -45 -56 0
43 -45 -172 0
-43 56 172 0
-43 45 56 0
-43 45 172 0
-42 -43 56 0
-42 -43 172 0
-42 -43 45 0
42 43 -56 0
42 43 -172 0
42 43 -45 0
42 -45 -56 -172 0
-42 45 56 172 0
41 -54 -176 0
41 -43 -54 0
41 -43 -176 0
-41 54 176 0
-41 43 54 0
-41 43 176 0
-40 -41 54 0
-40 -41 176 0
-40 -41 43 0
40 41 -54 0
40 41 -176 0
40 41 -43 0
40 -43 -54 -176 0
-40 43 54 176 0
39 -52 -178 0
39 -41 -52 0
39 -41 -178 0
-39 52 178 0
-39 41 52 0
-39 41 178 0
-38 -39 52 0
-38 -39 178 0
-38 -39 41 0
38 39 -52 0
38 39 -178 0
38 39 -41 0
38 -41 -52 -178 0
-38 41 52 178 0
37 -50 -180 0
37 -39 -50 0
37 -39 -180 0
-37 50 180 0
-37 39 50 0
-37 39 180 0
-36 -37 50 0
-36 -37 180 0
-36 -37 39 0
36 37 -50 0
36 37 -180 0
36 37 -39 0
36 -39 -50 -180 0
-36 39 50 180 0
35 -51 -182 0
35 -37 -51 0
35 -37 -182 0
-35 51 182 0
-35 37 51 0
-35 37 182 0
-34 -35 51 0
-34 -35 182 0
-34 -35 37 0
34 35 -51 0
34 35 -182 0
34 35 -37 0
34 -37 -51 -182 0
-34 37 51 182 0
-33 -161 0
-33 -162 0
33 161 162 0
-32 161 162 0
-32 -161 -162 0
32 -161 162 0
32 161 -162 0
-31 33 0
-31 -48 0
31 -33 48 0
-30 -33 48 0
-30 33 -48 0
30 33 48 0
30 -33 -48 0
-29 31 0
-29 -46 0
29 -31 46 0
-28 -31 46 0
-28 31 -46 0
28 31 46 0
28 -31 -46 0
-27 29 0
-27 -44 0
27 -29 44 0
-26 -29 44 0
-26 29 -44 0
26 29 44 0
26 -29 -44 0
-25 27 0
-25 -42 0
25 -27 42 0
-24 -27 42 0
-24 27 -42 0
24 27 42 0
24 -27 -42 0
-23 25 0
-23 -40 0
23 -25 40 0
-22 -25 40 0
-22 25 -40 0
22 25 40 0
22 -25 -40 0
-21 23 0
-21 -38 0
21 -23 38 0
-20 -23 38 0
-20 23 -38 0
20 23 38 0
20 -23 -38 0
-19 21 0
-19 -36 0
19 -21 36 0
-18 -21 36 0
-18 21 -36 0
18 21 36 0
18 -21 -36 0
-17 19 0
-17 -34 0
17 -19 34 0
-16 -19 34 0
-16 19 -34 0
16 19 34 0
16 -19 -34 0
-15 17 0
-15 -35 0
15 -17 35 0
-14 -17 35 0
-14 17 -35 0
14 17 35 0
14 -17 -35 0
-13 109 0
-13 161 0
13 -109 -161 0
-109 161 0
109 -161 0
12 -105 -162 0
12 -13 -105 0
12 -13 -162 0
-12 105 162 0
-12 13 105 0
-12 13 162 0
12 -105 0
12 -162 0
12 -13 0
-13 -105 -162 0
11 -48 -118 0
11 -12 -118 0
11 -12 -48 0
-11 48 118 0
-11 12 118 0
-11 12 48 0
11 -118 0
11 -48 0
11 -12 0
-12 -48 -118 0
10 -46 -120 0
10 -11 -120 0
10 -11 -46 0
-10 46 120 0
-10 11 120 0
-10 11 46 0
10 -120 0
10 -46 0
10 -11 0
-11 -46 -120 0
9 -44 -79 0
9 -10 -79 0
9 -10 -44 0
-9 44 79 0
-9 10 79 0
-9 10 44 0
9 -79 0
9 -44 0
9 -10 0
-10 -44 -79 0
8 -42 -60 0
8 -9 -60 0
8 -9 -42 0
-8 42 60 0
-8 9 60 0
-8 9 42 0
-8 60 0
-8 42 0
-8 9 0
9 42 60 0
7 -40 -58 0
7 -8 -58 0
7 -8 -40 0
-7 40 58 0
-7 8 58 0
-7 8 40 0
-7 58 0
-7 40 0
-7 8 0
8 40 58 0
6 -38 -124 0
6 -7 -124 0
6 -7 -38 0
-6 38 124 0
-6 7 124 0
-6 7 38 0
-6 124 0
-6 38 0
-6 7 0
7 38 124 0
5 -36 -126 0
5 -6 -126 0
5 -6 -36 0
-5 36 126 0
-5 6 126 0
-5 6 36 0
5 -126 0
5 -36 0
5 -6 0
-6 -36 -126 0
4 -34 -128 0
4 -5 -128 0
4 -5 -34 0
-4 34 128 0
-4 5 128 0
-4 5 34 0
4 -128 0
4 -34 0
4 -5 0
-5 -34 -128 0
3 -35 -130 0
3 -4 -130 0
3 -4 -35 0
-3 35 130 0
-3 4 130 0
-3 4 35 0
3 -130 0
3 -35 0
3 -4 0
-4 -35 -130 0
-2 132 0
-2 3 0
2 -3 -132 0
3 -132 0
-3 132 0
-1 134 0
-1 2 0
1 -2 -134 0
2 -134 0
-2 134 0
-1 -133 0
1 -133 0
-1 133 0
